100
20 0
34 0
6 1
37 3
2 1
28 4
34 3
13 4
42 2
20 1
43 3
16 3
3 2
32 3
29 4
37 0
37 4
3 4
6 4
21 3
10 0
13 0
36 3
14 4
40 2
7 4
39 0
40 3
43 0
31 2
3 0
23 0
1 4
25 2
15 1
42 4
31 4
23 3
23 1
39 4
40 0
6 0
43 1
21 4
0 0
7 1
0 4
19 4
36 4
28 1
10 1
5 0
41 4
12 4
30 4
7 3
31 3
41 0
1 2
22 2
0 3
40 4
32 4
5 4
25 0
27 0
15 4
7 0
18 0
22 0
11 0
20 4
28 0
33 4
9 0
25 4
2 4
19 0
14 1
31 0
30 1
2 0
1 0
0 1
24 2
40 1
9 1
18 4
23 2
25 3
33 0
38 0
38 4
4 0
9 4
29 3
41 1
21 0
12 3
29 1

